\ENCODING=ISO-8859-1
\Problem name: 

Maximize
 obj1: - x_h2_3 - x_h4_5 - x_2_h2 - x_h4_1 - x_2_4 - x_1_5 - x_1_h3 - x_h4_h1
       - x_h2_4 - x_1_h4 - x_1_3 - x_4_h3 - x_h3_5 - x_4_h4 - x_4_h1 - x_4_3
       - x_3_5 - x_h3_h4 - x_1_2 - x_3_h3 - x_1_h2 - x_3_h4 - x_2_1 - x_1_4
       - x_0_h3 - x_h1_5 - x_4_2 - x_h1_h3 - x_h2_1 - x_4_h2 - x_0_3 - x_h1_h4
       - x_2_h4 - x_h3_2 - x_2_h1 - x_h3_h2 - x_h1_3 - x_3_2 - x_3_h2 - x_h3_4
       - x_h2_h1 - x_0_2 - x_3_4 - x_0_h2 - x_h1_2 - x_h1_h2 - x_h4_h3 - x_0_4
       - x_h1_4 - x_h4_3 - x_4_5 - x_4_1 - x_1_h1 - x_h3_1 - x_h4_2 - x_h4_h2
       - x_3_1 - x_0_1 - x_h3_h1 - x_2_5 - x_2_h3 - x_3_h1 - x_h2_5 - x_0_h4
       - x_2_3 - x_h2_h3 - x_0_h1 - x_h2_h4 + 100 o_1 + 100 o_2 + 100 o_3
       + 100 o_4
Subject To
 const2#0:           x_0_h3 + x_0_3 + x_0_2 + x_0_h2 + x_0_4 + x_0_1 + x_0_h4
                     + x_0_h1 <= 2
 const3_1#1:         x_h4_1 + x_2_1 + x_h2_1 + x_4_1 + x_h3_1 + x_3_1 + x_0_1
                     <= 1
 const3_2#2:         x_1_2 + x_4_2 + x_h3_2 + x_3_2 + x_0_2 + x_h1_2 + x_h4_2
                     <= 1
 const3_3#3:         x_h2_3 + x_1_3 + x_4_3 + x_0_3 + x_h1_3 + x_h4_3 + x_2_3
                     <= 1
 const3_4#4:         x_2_4 + x_h2_4 + x_1_4 + x_h3_4 + x_3_4 + x_0_4 + x_h1_4
                     <= 1
 const3_h1#5:        x_h4_h1 + x_4_h1 + x_2_h1 + x_h2_h1 + x_1_h1 + x_h3_h1
                     + x_3_h1 + x_0_h1 <= 1
 const3_h2#6:        x_2_h2 + x_1_h2 + x_4_h2 + x_h3_h2 + x_3_h2 + x_0_h2
                     + x_h1_h2 + x_h4_h2 <= 1
 const3_h3#7:        x_1_h3 + x_4_h3 + x_3_h3 + x_0_h3 + x_h1_h3 + x_h4_h3
                     + x_2_h3 + x_h2_h3 <= 1
 const3_h4#8:        x_1_h4 + x_4_h4 + x_h3_h4 + x_3_h4 + x_h1_h4 + x_2_h4
                     + x_0_h4 + x_h2_h4 <= 1
 const4_1#9:         - x_h4_1 + x_1_5 + x_1_h3 + x_1_h4 + x_1_3 + x_1_2
                     + x_1_h2 - x_2_1 + x_1_4 - x_h2_1 - x_4_1 + x_1_h1
                     - x_h3_1 - x_3_1 - x_0_1  = 0
 const4_2#10:        x_2_h2 + x_2_4 - x_1_2 + x_2_1 - x_4_2 + x_2_h4 - x_h3_2
                     + x_2_h1 - x_3_2 - x_0_2 - x_h1_2 - x_h4_2 + x_2_5
                     + x_2_h3 + x_2_3  = 0
 const4_3#11:        - x_h2_3 - x_1_3 - x_4_3 + x_3_5 + x_3_h3 + x_3_h4 - x_0_3
                     - x_h1_3 + x_3_2 + x_3_h2 + x_3_4 - x_h4_3 + x_3_1
                     + x_3_h1 - x_2_3  = 0
 const4_4#12:        - x_2_4 - x_h2_4 + x_4_h3 + x_4_h4 + x_4_h1 + x_4_3
                     - x_1_4 + x_4_2 + x_4_h2 - x_h3_4 - x_3_4 - x_0_4 - x_h1_4
                     + x_4_5 + x_4_1  = 0
 const4_h1#13:       - x_h4_h1 - x_4_h1 + x_h1_5 + x_h1_h3 + x_h1_h4 - x_2_h1
                     + x_h1_3 - x_h2_h1 + x_h1_2 + x_h1_h2 + x_h1_4 - x_1_h1
                     - x_h3_h1 - x_3_h1 - x_0_h1  = 0
 const4_h2#14:       x_h2_3 - x_2_h2 + x_h2_4 - x_1_h2 + x_h2_1 - x_4_h2
                     - x_h3_h2 - x_3_h2 + x_h2_h1 - x_0_h2 - x_h1_h2 - x_h4_h2
                     + x_h2_5 + x_h2_h3 + x_h2_h4  = 0
 const4_h3#15:       - x_1_h3 - x_4_h3 + x_h3_5 + x_h3_h4 - x_3_h3 - x_0_h3
                     - x_h1_h3 + x_h3_2 + x_h3_h2 + x_h3_4 - x_h4_h3 + x_h3_1
                     + x_h3_h1 - x_2_h3 - x_h2_h3  = 0
 const4_h4#16:       x_h4_5 + x_h4_1 + x_h4_h1 - x_1_h4 - x_4_h4 - x_h3_h4
                     - x_3_h4 - x_h1_h4 - x_2_h4 + x_h4_h3 + x_h4_3 + x_h4_2
                     + x_h4_h2 - x_0_h4 - x_h2_h4  = 0
 const5_4_h4#17:     x_2_4 + x_h2_4 - x_1_h4 - x_4_h4 - x_h3_h4 - x_3_h4
                     + x_1_4 - x_h1_h4 - x_2_h4 + x_h3_4 + x_3_4 + x_0_4
                     + x_h1_4 - x_0_h4 - x_h2_h4  = 0
 const5_2_h2#18:     - x_2_h2 + x_1_2 - x_1_h2 + x_4_2 - x_4_h2 + x_h3_2
                     - x_h3_h2 + x_3_2 - x_3_h2 + x_0_2 - x_0_h2 + x_h1_2
                     - x_h1_h2 + x_h4_2 - x_h4_h2  = 0
 const5_1_h1#19:     x_h4_1 - x_h4_h1 - x_4_h1 + x_2_1 + x_h2_1 - x_2_h1
                     - x_h2_h1 + x_4_1 - x_1_h1 + x_h3_1 + x_3_1 + x_0_1
                     - x_h3_h1 - x_3_h1 - x_0_h1  = 0
 const5_3_h3#20:     x_h2_3 - x_1_h3 + x_1_3 - x_4_h3 + x_4_3 - x_3_h3 - x_0_h3
                     - x_h1_h3 + x_0_3 + x_h1_3 - x_h4_h3 + x_h4_3 - x_2_h3
                     + x_2_3 - x_h2_h3  = 0
 const6_1#21:        y_0_h3_1 + y_0_3_1 + y_0_2_1 + y_0_h2_1 + y_0_4_1
                     + y_0_1_1 + y_0_h4_1 + y_0_h1_1 <= 1
 const6_2#22:        y_0_h3_2 + y_0_3_2 + y_0_2_2 + y_0_h2_2 + y_0_4_2
                     + y_0_1_2 + y_0_h4_2 + y_0_h1_2 <= 1
 const6_3#23:        y_0_h3_3 + y_0_3_3 + y_0_2_3 + y_0_h2_3 + y_0_4_3
                     + y_0_1_3 + y_0_h4_3 + y_0_h1_3 <= 1
 const6_4#24:        y_0_h3_4 + y_0_3_4 + y_0_2_4 + y_0_h2_4 + y_0_4_4
                     + y_0_1_4 + y_0_h4_4 + y_0_h1_4 <= 1
 const7_1_1#25:      - y_h4_1_1 + y_1_5_1 + y_1_h3_1 + y_1_h4_1 + y_1_3_1
                     + y_1_2_1 + y_1_h2_1 - y_2_1_1 + y_1_4_1 - y_h2_1_1
                     - y_4_1_1 + y_1_h1_1 - y_h3_1_1 - y_3_1_1 - y_0_1_1  = 0
 const7_1_2#26:      - y_h4_1_2 + y_1_5_2 + y_1_h3_2 + y_1_h4_2 + y_1_3_2
                     + y_1_2_2 + y_1_h2_2 - y_2_1_2 + y_1_4_2 - y_h2_1_2
                     - y_4_1_2 + y_1_h1_2 - y_h3_1_2 - y_3_1_2 - y_0_1_2  = 0
 const7_1_3#27:      - y_h4_1_3 + y_1_5_3 + y_1_h3_3 + y_1_h4_3 + y_1_3_3
                     + y_1_2_3 + y_1_h2_3 - y_2_1_3 + y_1_4_3 - y_h2_1_3
                     - y_4_1_3 + y_1_h1_3 - y_h3_1_3 - y_3_1_3 - y_0_1_3  = 0
 const7_1_4#28:      - y_h4_1_4 + y_1_5_4 + y_1_h3_4 + y_1_h4_4 + y_1_3_4
                     + y_1_2_4 + y_1_h2_4 - y_2_1_4 + y_1_4_4 - y_h2_1_4
                     - y_4_1_4 + y_1_h1_4 - y_h3_1_4 - y_3_1_4 - y_0_1_4  = 0
 const7_2_1#29:      y_2_h2_1 + y_2_4_1 - y_1_2_1 + y_2_1_1 - y_4_2_1
                     + y_2_h4_1 - y_h3_2_1 + y_2_h1_1 - y_3_2_1 - y_0_2_1
                     - y_h1_2_1 - y_h4_2_1 + y_2_5_1 + y_2_h3_1 + y_2_3_1  = 0
 const7_2_2#30:      y_2_h2_2 + y_2_4_2 - y_1_2_2 + y_2_1_2 - y_4_2_2
                     + y_2_h4_2 - y_h3_2_2 + y_2_h1_2 - y_3_2_2 - y_0_2_2
                     - y_h1_2_2 - y_h4_2_2 + y_2_5_2 + y_2_h3_2 + y_2_3_2  = 0
 const7_2_3#31:      y_2_h2_3 + y_2_4_3 - y_1_2_3 + y_2_1_3 - y_4_2_3
                     + y_2_h4_3 - y_h3_2_3 + y_2_h1_3 - y_3_2_3 - y_0_2_3
                     - y_h1_2_3 - y_h4_2_3 + y_2_5_3 + y_2_h3_3 + y_2_3_3  = 0
 const7_2_4#32:      y_2_h2_4 + y_2_4_4 - y_1_2_4 + y_2_1_4 - y_4_2_4
                     + y_2_h4_4 - y_h3_2_4 + y_2_h1_4 - y_3_2_4 - y_0_2_4
                     - y_h1_2_4 - y_h4_2_4 + y_2_5_4 + y_2_h3_4 + y_2_3_4  = 0
 const7_3_1#33:      - y_h2_3_1 - y_1_3_1 - y_4_3_1 + y_3_5_1 + y_3_h3_1
                     + y_3_h4_1 - y_0_3_1 - y_h1_3_1 + y_3_2_1 + y_3_h2_1
                     + y_3_4_1 - y_h4_3_1 + y_3_1_1 + y_3_h1_1 - y_2_3_1  = 0
 const7_3_2#34:      - y_h2_3_2 - y_1_3_2 - y_4_3_2 + y_3_5_2 + y_3_h3_2
                     + y_3_h4_2 - y_0_3_2 - y_h1_3_2 + y_3_2_2 + y_3_h2_2
                     + y_3_4_2 - y_h4_3_2 + y_3_1_2 + y_3_h1_2 - y_2_3_2  = 0
 const7_3_3#35:      - y_h2_3_3 - y_1_3_3 - y_4_3_3 + y_3_5_3 + y_3_h3_3
                     + y_3_h4_3 - y_0_3_3 - y_h1_3_3 + y_3_2_3 + y_3_h2_3
                     + y_3_4_3 - y_h4_3_3 + y_3_1_3 + y_3_h1_3 - y_2_3_3  = 0
 const7_3_4#36:      - y_h2_3_4 - y_1_3_4 - y_4_3_4 + y_3_5_4 + y_3_h3_4
                     + y_3_h4_4 - y_0_3_4 - y_h1_3_4 + y_3_2_4 + y_3_h2_4
                     + y_3_4_4 - y_h4_3_4 + y_3_1_4 + y_3_h1_4 - y_2_3_4  = 0
 const7_4_1#37:      - y_2_4_1 - y_h2_4_1 + y_4_h3_1 + y_4_h4_1 + y_4_h1_1
                     + y_4_3_1 - y_1_4_1 + y_4_2_1 + y_4_h2_1 - y_h3_4_1
                     - y_3_4_1 - y_0_4_1 - y_h1_4_1 + y_4_5_1 + y_4_1_1  = 0
 const7_4_2#38:      - y_2_4_2 - y_h2_4_2 + y_4_h3_2 + y_4_h4_2 + y_4_h1_2
                     + y_4_3_2 - y_1_4_2 + y_4_2_2 + y_4_h2_2 - y_h3_4_2
                     - y_3_4_2 - y_0_4_2 - y_h1_4_2 + y_4_5_2 + y_4_1_2  = 0
 const7_4_3#39:      - y_2_4_3 - y_h2_4_3 + y_4_h3_3 + y_4_h4_3 + y_4_h1_3
                     + y_4_3_3 - y_1_4_3 + y_4_2_3 + y_4_h2_3 - y_h3_4_3
                     - y_3_4_3 - y_0_4_3 - y_h1_4_3 + y_4_5_3 + y_4_1_3  = 0
 const7_4_4#40:      - y_2_4_4 - y_h2_4_4 + y_4_h3_4 + y_4_h4_4 + y_4_h1_4
                     + y_4_3_4 - y_1_4_4 + y_4_2_4 + y_4_h2_4 - y_h3_4_4
                     - y_3_4_4 - y_0_4_4 - y_h1_4_4 + y_4_5_4 + y_4_1_4  = 0
 const7_h1_1#41:     - y_h4_h1_1 - y_4_h1_1 + y_h1_5_1 + y_h1_h3_1 + y_h1_h4_1
                     - y_2_h1_1 + y_h1_3_1 - y_h2_h1_1 + y_h1_2_1 + y_h1_h2_1
                     + y_h1_4_1 - y_1_h1_1 - y_h3_h1_1 - y_3_h1_1 - y_0_h1_1
                      = 0
 const7_h1_2#42:     - y_h4_h1_2 - y_4_h1_2 + y_h1_5_2 + y_h1_h3_2 + y_h1_h4_2
                     - y_2_h1_2 + y_h1_3_2 - y_h2_h1_2 + y_h1_2_2 + y_h1_h2_2
                     + y_h1_4_2 - y_1_h1_2 - y_h3_h1_2 - y_3_h1_2 - y_0_h1_2
                      = 0
 const7_h1_3#43:     - y_h4_h1_3 - y_4_h1_3 + y_h1_5_3 + y_h1_h3_3 + y_h1_h4_3
                     - y_2_h1_3 + y_h1_3_3 - y_h2_h1_3 + y_h1_2_3 + y_h1_h2_3
                     + y_h1_4_3 - y_1_h1_3 - y_h3_h1_3 - y_3_h1_3 - y_0_h1_3
                      = 0
 const7_h1_4#44:     - y_h4_h1_4 - y_4_h1_4 + y_h1_5_4 + y_h1_h3_4 + y_h1_h4_4
                     - y_2_h1_4 + y_h1_3_4 - y_h2_h1_4 + y_h1_2_4 + y_h1_h2_4
                     + y_h1_4_4 - y_1_h1_4 - y_h3_h1_4 - y_3_h1_4 - y_0_h1_4
                      = 0
 const7_h2_1#45:     y_h2_3_1 - y_2_h2_1 + y_h2_4_1 - y_1_h2_1 + y_h2_1_1
                     - y_4_h2_1 - y_h3_h2_1 - y_3_h2_1 + y_h2_h1_1 - y_0_h2_1
                     - y_h1_h2_1 - y_h4_h2_1 + y_h2_5_1 + y_h2_h3_1 + y_h2_h4_1
                      = 0
 const7_h2_2#46:     y_h2_3_2 - y_2_h2_2 + y_h2_4_2 - y_1_h2_2 + y_h2_1_2
                     - y_4_h2_2 - y_h3_h2_2 - y_3_h2_2 + y_h2_h1_2 - y_0_h2_2
                     - y_h1_h2_2 - y_h4_h2_2 + y_h2_5_2 + y_h2_h3_2 + y_h2_h4_2
                      = 0
 const7_h2_3#47:     y_h2_3_3 - y_2_h2_3 + y_h2_4_3 - y_1_h2_3 + y_h2_1_3
                     - y_4_h2_3 - y_h3_h2_3 - y_3_h2_3 + y_h2_h1_3 - y_0_h2_3
                     - y_h1_h2_3 - y_h4_h2_3 + y_h2_5_3 + y_h2_h3_3 + y_h2_h4_3
                      = 0
 const7_h2_4#48:     y_h2_3_4 - y_2_h2_4 + y_h2_4_4 - y_1_h2_4 + y_h2_1_4
                     - y_4_h2_4 - y_h3_h2_4 - y_3_h2_4 + y_h2_h1_4 - y_0_h2_4
                     - y_h1_h2_4 - y_h4_h2_4 + y_h2_5_4 + y_h2_h3_4 + y_h2_h4_4
                      = 0
 const7_h3_1#49:     - y_1_h3_1 - y_4_h3_1 + y_h3_5_1 + y_h3_h4_1 - y_3_h3_1
                     - y_0_h3_1 - y_h1_h3_1 + y_h3_2_1 + y_h3_h2_1 + y_h3_4_1
                     - y_h4_h3_1 + y_h3_1_1 + y_h3_h1_1 - y_2_h3_1 - y_h2_h3_1
                      = 0
 const7_h3_2#50:     - y_1_h3_2 - y_4_h3_2 + y_h3_5_2 + y_h3_h4_2 - y_3_h3_2
                     - y_0_h3_2 - y_h1_h3_2 + y_h3_2_2 + y_h3_h2_2 + y_h3_4_2
                     - y_h4_h3_2 + y_h3_1_2 + y_h3_h1_2 - y_2_h3_2 - y_h2_h3_2
                      = 0
 const7_h3_3#51:     - y_1_h3_3 - y_4_h3_3 + y_h3_5_3 + y_h3_h4_3 - y_3_h3_3
                     - y_0_h3_3 - y_h1_h3_3 + y_h3_2_3 + y_h3_h2_3 + y_h3_4_3
                     - y_h4_h3_3 + y_h3_1_3 + y_h3_h1_3 - y_2_h3_3 - y_h2_h3_3
                      = 0
 const7_h3_4#52:     - y_1_h3_4 - y_4_h3_4 + y_h3_5_4 + y_h3_h4_4 - y_3_h3_4
                     - y_0_h3_4 - y_h1_h3_4 + y_h3_2_4 + y_h3_h2_4 + y_h3_4_4
                     - y_h4_h3_4 + y_h3_1_4 + y_h3_h1_4 - y_2_h3_4 - y_h2_h3_4
                      = 0
 const7_h4_1#53:     y_h4_5_1 + y_h4_1_1 + y_h4_h1_1 - y_1_h4_1 - y_4_h4_1
                     - y_h3_h4_1 - y_3_h4_1 - y_h1_h4_1 - y_2_h4_1 + y_h4_h3_1
                     + y_h4_3_1 + y_h4_2_1 + y_h4_h2_1 - y_0_h4_1 - y_h2_h4_1
                      = 0
 const7_h4_2#54:     y_h4_5_2 + y_h4_1_2 + y_h4_h1_2 - y_1_h4_2 - y_4_h4_2
                     - y_h3_h4_2 - y_3_h4_2 - y_h1_h4_2 - y_2_h4_2 + y_h4_h3_2
                     + y_h4_3_2 + y_h4_2_2 + y_h4_h2_2 - y_0_h4_2 - y_h2_h4_2
                      = 0
 const7_h4_3#55:     y_h4_5_3 + y_h4_1_3 + y_h4_h1_3 - y_1_h4_3 - y_4_h4_3
                     - y_h3_h4_3 - y_3_h4_3 - y_h1_h4_3 - y_2_h4_3 + y_h4_h3_3
                     + y_h4_3_3 + y_h4_2_3 + y_h4_h2_3 - y_0_h4_3 - y_h2_h4_3
                      = 0
 const7_h4_4#56:     y_h4_5_4 + y_h4_1_4 + y_h4_h1_4 - y_1_h4_4 - y_4_h4_4
                     - y_h3_h4_4 - y_3_h4_4 - y_h1_h4_4 - y_2_h4_4 + y_h4_h3_4
                     + y_h4_3_4 + y_h4_2_4 + y_h4_h2_4 - y_0_h4_4 - y_h2_h4_4
                      = 0
 const8_h2_3#57:     2 x_h2_3 - y_h2_3_1 - y_h2_3_2 - y_h2_3_3 - y_h2_3_4 >= 0
 const8_h4_5#58:     2 x_h4_5 - y_h4_5_1 - y_h4_5_2 - y_h4_5_3 - y_h4_5_4 >= 0
 const8_h4_1#59:     2 x_h4_1 - y_h4_1_1 - y_h4_1_2 - y_h4_1_3 - y_h4_1_4 >= 0
 const8_2_4#60:      2 x_2_4 - y_2_4_1 - y_2_4_2 - y_2_4_3 - y_2_4_4 >= 0
 const8_1_5#61:      2 x_1_5 - y_1_5_1 - y_1_5_2 - y_1_5_3 - y_1_5_4 >= 0
 const8_1_h3#62:     2 x_1_h3 - y_1_h3_1 - y_1_h3_2 - y_1_h3_3 - y_1_h3_4 >= 0
 const8_h4_h1#63:    2 x_h4_h1 - y_h4_h1_1 - y_h4_h1_2 - y_h4_h1_3 - y_h4_h1_4
                     >= 0
 const8_h2_4#64:     2 x_h2_4 - y_h2_4_1 - y_h2_4_2 - y_h2_4_3 - y_h2_4_4 >= 0
 const8_1_h4#65:     2 x_1_h4 - y_1_h4_1 - y_1_h4_2 - y_1_h4_3 - y_1_h4_4 >= 0
 const8_1_3#66:      2 x_1_3 - y_1_3_1 - y_1_3_2 - y_1_3_3 - y_1_3_4 >= 0
 const8_4_h3#67:     2 x_4_h3 - y_4_h3_1 - y_4_h3_2 - y_4_h3_3 - y_4_h3_4 >= 0
 const8_h3_5#68:     2 x_h3_5 - y_h3_5_1 - y_h3_5_2 - y_h3_5_3 - y_h3_5_4 >= 0
 const8_4_h1#69:     2 x_4_h1 - y_4_h1_1 - y_4_h1_2 - y_4_h1_3 - y_4_h1_4 >= 0
 const8_4_3#70:      2 x_4_3 - y_4_3_1 - y_4_3_2 - y_4_3_3 - y_4_3_4 >= 0
 const8_3_5#71:      2 x_3_5 - y_3_5_1 - y_3_5_2 - y_3_5_3 - y_3_5_4 >= 0
 const8_h3_h4#72:    2 x_h3_h4 - y_h3_h4_1 - y_h3_h4_2 - y_h3_h4_3 - y_h3_h4_4
                     >= 0
 const8_1_2#73:      2 x_1_2 - y_1_2_1 - y_1_2_2 - y_1_2_3 - y_1_2_4 >= 0
 const8_1_h2#74:     2 x_1_h2 - y_1_h2_1 - y_1_h2_2 - y_1_h2_3 - y_1_h2_4 >= 0
 const8_3_h4#75:     2 x_3_h4 - y_3_h4_1 - y_3_h4_2 - y_3_h4_3 - y_3_h4_4 >= 0
 const8_2_1#76:      2 x_2_1 - y_2_1_1 - y_2_1_2 - y_2_1_3 - y_2_1_4 >= 0
 const8_1_4#77:      2 x_1_4 - y_1_4_1 - y_1_4_2 - y_1_4_3 - y_1_4_4 >= 0
 const8_0_h3#78:     2 x_0_h3 - y_0_h3_1 - y_0_h3_2 - y_0_h3_3 - y_0_h3_4 >= 0
 const8_h1_5#79:     2 x_h1_5 - y_h1_5_1 - y_h1_5_2 - y_h1_5_3 - y_h1_5_4 >= 0
 const8_4_2#80:      2 x_4_2 - y_4_2_1 - y_4_2_2 - y_4_2_3 - y_4_2_4 >= 0
 const8_h1_h3#81:    2 x_h1_h3 - y_h1_h3_1 - y_h1_h3_2 - y_h1_h3_3 - y_h1_h3_4
                     >= 0
 const8_h2_1#82:     2 x_h2_1 - y_h2_1_1 - y_h2_1_2 - y_h2_1_3 - y_h2_1_4 >= 0
 const8_4_h2#83:     2 x_4_h2 - y_4_h2_1 - y_4_h2_2 - y_4_h2_3 - y_4_h2_4 >= 0
 const8_0_3#84:      2 x_0_3 - y_0_3_1 - y_0_3_2 - y_0_3_3 - y_0_3_4 >= 0
 const8_h1_h4#85:    2 x_h1_h4 - y_h1_h4_1 - y_h1_h4_2 - y_h1_h4_3 - y_h1_h4_4
                     >= 0
 const8_2_h4#86:     2 x_2_h4 - y_2_h4_1 - y_2_h4_2 - y_2_h4_3 - y_2_h4_4 >= 0
 const8_h3_2#87:     2 x_h3_2 - y_h3_2_1 - y_h3_2_2 - y_h3_2_3 - y_h3_2_4 >= 0
 const8_2_h1#88:     2 x_2_h1 - y_2_h1_1 - y_2_h1_2 - y_2_h1_3 - y_2_h1_4 >= 0
 const8_h3_h2#89:    2 x_h3_h2 - y_h3_h2_1 - y_h3_h2_2 - y_h3_h2_3 - y_h3_h2_4
                     >= 0
 const8_h1_3#90:     2 x_h1_3 - y_h1_3_1 - y_h1_3_2 - y_h1_3_3 - y_h1_3_4 >= 0
 const8_3_2#91:      2 x_3_2 - y_3_2_1 - y_3_2_2 - y_3_2_3 - y_3_2_4 >= 0
 const8_3_h2#92:     2 x_3_h2 - y_3_h2_1 - y_3_h2_2 - y_3_h2_3 - y_3_h2_4 >= 0
 const8_h3_4#93:     2 x_h3_4 - y_h3_4_1 - y_h3_4_2 - y_h3_4_3 - y_h3_4_4 >= 0
 const8_h2_h1#94:    2 x_h2_h1 - y_h2_h1_1 - y_h2_h1_2 - y_h2_h1_3 - y_h2_h1_4
                     >= 0
 const8_0_2#95:      2 x_0_2 - y_0_2_1 - y_0_2_2 - y_0_2_3 - y_0_2_4 >= 0
 const8_3_4#96:      2 x_3_4 - y_3_4_1 - y_3_4_2 - y_3_4_3 - y_3_4_4 >= 0
 const8_0_h2#97:     2 x_0_h2 - y_0_h2_1 - y_0_h2_2 - y_0_h2_3 - y_0_h2_4 >= 0
 const8_h1_2#98:     2 x_h1_2 - y_h1_2_1 - y_h1_2_2 - y_h1_2_3 - y_h1_2_4 >= 0
 const8_h1_h2#99:    2 x_h1_h2 - y_h1_h2_1 - y_h1_h2_2 - y_h1_h2_3 - y_h1_h2_4
                     >= 0
 const8_h4_h3#100:   2 x_h4_h3 - y_h4_h3_1 - y_h4_h3_2 - y_h4_h3_3 - y_h4_h3_4
                     >= 0
 const8_0_4#101:     2 x_0_4 - y_0_4_1 - y_0_4_2 - y_0_4_3 - y_0_4_4 >= 0
 const8_h1_4#102:    2 x_h1_4 - y_h1_4_1 - y_h1_4_2 - y_h1_4_3 - y_h1_4_4 >= 0
 const8_h4_3#103:    2 x_h4_3 - y_h4_3_1 - y_h4_3_2 - y_h4_3_3 - y_h4_3_4 >= 0
 const8_4_5#104:     2 x_4_5 - y_4_5_1 - y_4_5_2 - y_4_5_3 - y_4_5_4 >= 0
 const8_4_1#105:     2 x_4_1 - y_4_1_1 - y_4_1_2 - y_4_1_3 - y_4_1_4 >= 0
 const8_h3_1#106:    2 x_h3_1 - y_h3_1_1 - y_h3_1_2 - y_h3_1_3 - y_h3_1_4 >= 0
 const8_h4_2#107:    2 x_h4_2 - y_h4_2_1 - y_h4_2_2 - y_h4_2_3 - y_h4_2_4 >= 0
 const8_h4_h2#108:   2 x_h4_h2 - y_h4_h2_1 - y_h4_h2_2 - y_h4_h2_3 - y_h4_h2_4
                     >= 0
 const8_3_1#109:     2 x_3_1 - y_3_1_1 - y_3_1_2 - y_3_1_3 - y_3_1_4 >= 0
 const8_0_1#110:     2 x_0_1 - y_0_1_1 - y_0_1_2 - y_0_1_3 - y_0_1_4 >= 0
 const8_h3_h1#111:   2 x_h3_h1 - y_h3_h1_1 - y_h3_h1_2 - y_h3_h1_3 - y_h3_h1_4
                     >= 0
 const8_2_5#112:     2 x_2_5 - y_2_5_1 - y_2_5_2 - y_2_5_3 - y_2_5_4 >= 0
 const8_2_h3#113:    2 x_2_h3 - y_2_h3_1 - y_2_h3_2 - y_2_h3_3 - y_2_h3_4 >= 0
 const8_3_h1#114:    2 x_3_h1 - y_3_h1_1 - y_3_h1_2 - y_3_h1_3 - y_3_h1_4 >= 0
 const8_h2_5#115:    2 x_h2_5 - y_h2_5_1 - y_h2_5_2 - y_h2_5_3 - y_h2_5_4 >= 0
 const8_0_h4#116:    2 x_0_h4 - y_0_h4_1 - y_0_h4_2 - y_0_h4_3 - y_0_h4_4 >= 0
 const8_2_3#117:     2 x_2_3 - y_2_3_1 - y_2_3_2 - y_2_3_3 - y_2_3_4 >= 0
 const8_h2_h3#118:   2 x_h2_h3 - y_h2_h3_1 - y_h2_h3_2 - y_h2_h3_3 - y_h2_h3_4
                     >= 0
 const8_0_h1#119:    2 x_0_h1 - y_0_h1_1 - y_0_h1_2 - y_0_h1_3 - y_0_h1_4 >= 0
 const8_h2_h4#120:   2 x_h2_h4 - y_h2_h4_1 - y_h2_h4_2 - y_h2_h4_3 - y_h2_h4_4
                     >= 0
 const9_1#121:       30 z_1_1 + 30 z_2_1 + 30 z_3_1 + 30 z_4_1 <= 75
 const9_2#122:       30 z_1_2 + 30 z_2_2 + 30 z_3_2 + 30 z_4_2 <= 75
 const9_3#123:       30 z_1_3 + 30 z_2_3 + 30 z_3_3 + 30 z_4_3 <= 75
 const9_4#124:       30 z_1_4 + 30 z_2_4 + 30 z_3_4 + 30 z_4_4 <= 75
 const10_1#125:      z_1_1 + z_1_2 + z_1_3 + z_1_4 <= 1
 const10_2#126:      z_2_1 + z_2_2 + z_2_3 + z_2_4 <= 1
 const10_3#127:      z_3_1 + z_3_2 + z_3_3 + z_3_4 <= 1
 const10_4#128:      z_4_1 + z_4_2 + z_4_3 + z_4_4 <= 1
 const11_1#129:      - z_1_1 - z_1_2 - z_1_3 - z_1_4 + o_1  = 0
 const11_2#130:      - z_2_1 - z_2_2 - z_2_3 - z_2_4 + o_2  = 0
 const11_3#131:      - z_3_1 - z_3_2 - z_3_3 - z_3_4 + o_3  = 0
 const11_4#132:      - z_4_1 - z_4_2 - z_4_3 - z_4_4 + o_4  = 0
 const12_4_h4_1#133: y_4_h4_1 - z_4_1  = 0
 const12_4_h4_2#134: y_4_h4_2 - z_4_2  = 0
 const12_4_h4_3#135: y_4_h4_3 - z_4_3  = 0
 const12_4_h4_4#136: y_4_h4_4 - z_4_4  = 0
 const12_2_h2_1#137: y_2_h2_1 - z_2_1  = 0
 const12_2_h2_2#138: y_2_h2_2 - z_2_2  = 0
 const12_2_h2_3#139: y_2_h2_3 - z_2_3  = 0
 const12_2_h2_4#140: y_2_h2_4 - z_2_4  = 0
 const12_1_h1_1#141: y_1_h1_1 - z_1_1  = 0
 const12_1_h1_2#142: y_1_h1_2 - z_1_2  = 0
 const12_1_h1_3#143: y_1_h1_3 - z_1_3  = 0
 const12_1_h1_4#144: y_1_h1_4 - z_1_4  = 0
 const12_3_h3_1#145: y_3_h3_1 - z_3_1  = 0
 const12_3_h3_2#146: y_3_h3_2 - z_3_2  = 0
 const12_3_h3_3#147: y_3_h3_3 - z_3_3  = 0
 const12_3_h3_4#148: y_3_h3_4 - z_3_4  = 0
 const13_1#149:      - u_1 + v_1 >= 0
 const13_2#150:      - u_2 + v_2 >= 0
 const13_3#151:      - u_3 + v_3 >= 0
 const13_4#152:      - u_4 + v_4 >= 0
 const13_h1#153:     - u_h1 + v_h1 >= 0
 const13_h2#154:     - u_h2 + v_h2 >= 0
 const13_h3#155:     - u_h3 + v_h3 >= 0
 const13_h4#156:     - u_h4 + v_h4 >= 0
 const14_h2_3#157:   10000 x_h2_3 - u_3 + v_h2 <= 9990
 const14_h4_5#158:   10000 x_h4_5 - u_5 + v_h4 <= 9990
 const14_2_h2#159:   10000 x_2_h2 - u_h2 + v_2 <= 9960
 const14_h4_1#160:   10000 x_h4_1 - u_1 + v_h4 <= 9990
 const14_2_4#161:    10000 x_2_4 - u_4 + v_2 <= 9990
 const14_1_5#162:    10000 x_1_5 - u_5 + v_1 <= 9990
 const14_1_h3#163:   10000 x_1_h3 - u_h3 + v_1 <= 9990
 const14_h4_h1#164:  10000 x_h4_h1 - u_h1 + v_h4 <= 9990
 const14_h2_4#165:   10000 x_h2_4 - u_4 + v_h2 <= 9990
 const14_1_h4#166:   10000 x_1_h4 - u_h4 + v_1 <= 9990
 const14_1_3#167:    10000 x_1_3 - u_3 + v_1 <= 9990
 const14_4_h3#168:   10000 x_4_h3 - u_h3 + v_4 <= 9990
 const14_h3_5#169:   10000 x_h3_5 - u_5 + v_h3 <= 9990
 const14_4_h4#170:   10000 x_4_h4 - u_h4 + v_4 <= 9960
 const14_4_h1#171:   10000 x_4_h1 - u_h1 + v_4 <= 9990
 const14_4_3#172:    10000 x_4_3 - u_3 + v_4 <= 9990
 const14_3_5#173:    10000 x_3_5 - u_5 + v_3 <= 9990
 const14_h3_h4#174:  10000 x_h3_h4 - u_h4 + v_h3 <= 9990
 const14_1_2#175:    10000 x_1_2 - u_2 + v_1 <= 9990
 const14_3_h3#176:   10000 x_3_h3 - u_h3 + v_3 <= 9960
 const14_1_h2#177:   10000 x_1_h2 - u_h2 + v_1 <= 9990
 const14_3_h4#178:   10000 x_3_h4 - u_h4 + v_3 <= 9990
 const14_2_1#179:    10000 x_2_1 - u_1 + v_2 <= 9990
 const14_1_4#180:    10000 x_1_4 - u_4 + v_1 <= 9990
 const14_0_h3#181:   10000 x_0_h3 - u_h3 + v_0 <= 9990
 const14_h1_5#182:   10000 x_h1_5 - u_5 + v_h1 <= 9990
 const14_4_2#183:    10000 x_4_2 - u_2 + v_4 <= 9990
 const14_h1_h3#184:  10000 x_h1_h3 - u_h3 + v_h1 <= 9990
 const14_h2_1#185:   10000 x_h2_1 - u_1 + v_h2 <= 9990
 const14_4_h2#186:   10000 x_4_h2 - u_h2 + v_4 <= 9990
 const14_0_3#187:    10000 x_0_3 - u_3 + v_0 <= 9990
 const14_h1_h4#188:  10000 x_h1_h4 - u_h4 + v_h1 <= 9990
 const14_2_h4#189:   10000 x_2_h4 - u_h4 + v_2 <= 9990
 const14_h3_2#190:   10000 x_h3_2 - u_2 + v_h3 <= 9990
 const14_2_h1#191:   10000 x_2_h1 - u_h1 + v_2 <= 9990
 const14_h3_h2#192:  10000 x_h3_h2 - u_h2 + v_h3 <= 9990
 const14_h1_3#193:   10000 x_h1_3 - u_3 + v_h1 <= 9990
 const14_3_2#194:    10000 x_3_2 - u_2 + v_3 <= 9990
 const14_3_h2#195:   10000 x_3_h2 - u_h2 + v_3 <= 9990
 const14_h3_4#196:   10000 x_h3_4 - u_4 + v_h3 <= 9990
 const14_h2_h1#197:  10000 x_h2_h1 - u_h1 + v_h2 <= 9990
 const14_0_2#198:    10000 x_0_2 - u_2 + v_0 <= 9990
 const14_3_4#199:    10000 x_3_4 - u_4 + v_3 <= 9990
 const14_0_h2#200:   10000 x_0_h2 - u_h2 + v_0 <= 9990
 const14_h1_2#201:   10000 x_h1_2 - u_2 + v_h1 <= 9990
 const14_h1_h2#202:  10000 x_h1_h2 - u_h2 + v_h1 <= 9990
 const14_h4_h3#203:  10000 x_h4_h3 - u_h3 + v_h4 <= 9990
 const14_0_4#204:    10000 x_0_4 - u_4 + v_0 <= 9990
 const14_h1_4#205:   10000 x_h1_4 - u_4 + v_h1 <= 9990
 const14_h4_3#206:   10000 x_h4_3 - u_3 + v_h4 <= 9990
 const14_4_5#207:    10000 x_4_5 - u_5 + v_4 <= 9990
 const14_4_1#208:    10000 x_4_1 - u_1 + v_4 <= 9990
 const14_1_h1#209:   10000 x_1_h1 - u_h1 + v_1 <= 9960
 const14_h3_1#210:   10000 x_h3_1 - u_1 + v_h3 <= 9990
 const14_h4_2#211:   10000 x_h4_2 - u_2 + v_h4 <= 9990
 const14_h4_h2#212:  10000 x_h4_h2 - u_h2 + v_h4 <= 9990
 const14_3_1#213:    10000 x_3_1 - u_1 + v_3 <= 9990
 const14_0_1#214:    10000 x_0_1 - u_1 + v_0 <= 9990
 const14_h3_h1#215:  10000 x_h3_h1 - u_h1 + v_h3 <= 9990
 const14_2_5#216:    10000 x_2_5 - u_5 + v_2 <= 9990
 const14_2_h3#217:   10000 x_2_h3 - u_h3 + v_2 <= 9990
 const14_3_h1#218:   10000 x_3_h1 - u_h1 + v_3 <= 9990
 const14_h2_5#219:   10000 x_h2_5 - u_5 + v_h2 <= 9990
 const14_0_h4#220:   10000 x_0_h4 - u_h4 + v_0 <= 9990
 const14_2_3#221:    10000 x_2_3 - u_3 + v_2 <= 9990
 const14_h2_h3#222:  10000 x_h2_h3 - u_h3 + v_h2 <= 9990
 const14_0_h1#223:   10000 x_0_h1 - u_h1 + v_0 <= 9990
 const14_h2_h4#224:  10000 x_h2_h4 - u_h4 + v_h2 <= 9990
 const15_4_h4#225:   u_h4 - v_4 >= 40
 const15_2_h2#226:   u_h2 - v_2 >= 40
 const15_1_h1#227:   u_h1 - v_1 >= 40
 const15_3_h3#228:   u_h3 - v_3 >= 40
 const16_4_h4#229:   v_h4 >= 120
 const16_2_h2#230:   v_h2 >= 120
 const16_1_h1#231:   v_h1 >= 100
 const16_3_h3#232:   v_h3 >= 110
 const17_4_h4#233:   u_4 <= 100
 const17_2_h2#234:   u_2 <= 100
 const17_1_h1#235:   u_1 <= 80
 const17_3_h3#236:   u_3 <= 90
 const17m2_1#237:    v_1 >= 60
 const17m2_2#238:    v_2 >= 80
 const17m2_3#239:    v_3 >= 70
 const17m2_4#240:    v_4 >= 80
 const18#241:        v_0 >= 0
 const19#242:        u_5 <= 360
Bounds
 0 <= x_h2_3 <= 1
 0 <= x_h4_5 <= 1
 0 <= x_2_h2 <= 1
 0 <= x_h4_1 <= 1
 0 <= x_2_4 <= 1
 0 <= x_1_5 <= 1
 0 <= x_1_h3 <= 1
 0 <= x_h4_h1 <= 1
 0 <= x_h2_4 <= 1
 0 <= x_1_h4 <= 1
 0 <= x_1_3 <= 1
 0 <= x_4_h3 <= 1
 0 <= x_h3_5 <= 1
 0 <= x_4_h4 <= 1
 0 <= x_4_h1 <= 1
 0 <= x_4_3 <= 1
 0 <= x_3_5 <= 1
 0 <= x_h3_h4 <= 1
 0 <= x_1_2 <= 1
 0 <= x_3_h3 <= 1
 0 <= x_1_h2 <= 1
 0 <= x_3_h4 <= 1
 0 <= x_2_1 <= 1
 0 <= x_1_4 <= 1
 0 <= x_0_h3 <= 1
 0 <= x_h1_5 <= 1
 0 <= x_4_2 <= 1
 0 <= x_h1_h3 <= 1
 0 <= x_h2_1 <= 1
 0 <= x_4_h2 <= 1
 0 <= x_0_3 <= 1
 0 <= x_h1_h4 <= 1
 0 <= x_2_h4 <= 1
 0 <= x_h3_2 <= 1
 0 <= x_2_h1 <= 1
 0 <= x_h3_h2 <= 1
 0 <= x_h1_3 <= 1
 0 <= x_3_2 <= 1
 0 <= x_3_h2 <= 1
 0 <= x_h3_4 <= 1
 0 <= x_h2_h1 <= 1
 0 <= x_0_2 <= 1
 0 <= x_3_4 <= 1
 0 <= x_0_h2 <= 1
 0 <= x_h1_2 <= 1
 0 <= x_h1_h2 <= 1
 0 <= x_h4_h3 <= 1
 0 <= x_0_4 <= 1
 0 <= x_h1_4 <= 1
 0 <= x_h4_3 <= 1
 0 <= x_4_5 <= 1
 0 <= x_4_1 <= 1
 0 <= x_1_h1 <= 1
 0 <= x_h3_1 <= 1
 0 <= x_h4_2 <= 1
 0 <= x_h4_h2 <= 1
 0 <= x_3_1 <= 1
 0 <= x_0_1 <= 1
 0 <= x_h3_h1 <= 1
 0 <= x_2_5 <= 1
 0 <= x_2_h3 <= 1
 0 <= x_3_h1 <= 1
 0 <= x_h2_5 <= 1
 0 <= x_0_h4 <= 1
 0 <= x_2_3 <= 1
 0 <= x_h2_h3 <= 1
 0 <= x_0_h1 <= 1
 0 <= x_h2_h4 <= 1
 0 <= y_h2_3_1 <= 1
 0 <= y_h2_3_2 <= 1
 0 <= y_h2_3_3 <= 1
 0 <= y_h2_3_4 <= 1
 0 <= y_h4_5_1 <= 1
 0 <= y_h4_5_2 <= 1
 0 <= y_h4_5_3 <= 1
 0 <= y_h4_5_4 <= 1
 0 <= y_2_h2_1 <= 1
 0 <= y_2_h2_2 <= 1
 0 <= y_2_h2_3 <= 1
 0 <= y_2_h2_4 <= 1
 0 <= y_h4_1_1 <= 1
 0 <= y_h4_1_2 <= 1
 0 <= y_h4_1_3 <= 1
 0 <= y_h4_1_4 <= 1
 0 <= y_2_4_1 <= 1
 0 <= y_2_4_2 <= 1
 0 <= y_2_4_3 <= 1
 0 <= y_2_4_4 <= 1
 0 <= y_1_5_1 <= 1
 0 <= y_1_5_2 <= 1
 0 <= y_1_5_3 <= 1
 0 <= y_1_5_4 <= 1
 0 <= y_1_h3_1 <= 1
 0 <= y_1_h3_2 <= 1
 0 <= y_1_h3_3 <= 1
 0 <= y_1_h3_4 <= 1
 0 <= y_h4_h1_1 <= 1
 0 <= y_h4_h1_2 <= 1
 0 <= y_h4_h1_3 <= 1
 0 <= y_h4_h1_4 <= 1
 0 <= y_h2_4_1 <= 1
 0 <= y_h2_4_2 <= 1
 0 <= y_h2_4_3 <= 1
 0 <= y_h2_4_4 <= 1
 0 <= y_1_h4_1 <= 1
 0 <= y_1_h4_2 <= 1
 0 <= y_1_h4_3 <= 1
 0 <= y_1_h4_4 <= 1
 0 <= y_1_3_1 <= 1
 0 <= y_1_3_2 <= 1
 0 <= y_1_3_3 <= 1
 0 <= y_1_3_4 <= 1
 0 <= y_4_h3_1 <= 1
 0 <= y_4_h3_2 <= 1
 0 <= y_4_h3_3 <= 1
 0 <= y_4_h3_4 <= 1
 0 <= y_h3_5_1 <= 1
 0 <= y_h3_5_2 <= 1
 0 <= y_h3_5_3 <= 1
 0 <= y_h3_5_4 <= 1
 0 <= y_4_h4_1 <= 1
 0 <= y_4_h4_2 <= 1
 0 <= y_4_h4_3 <= 1
 0 <= y_4_h4_4 <= 1
 0 <= y_4_h1_1 <= 1
 0 <= y_4_h1_2 <= 1
 0 <= y_4_h1_3 <= 1
 0 <= y_4_h1_4 <= 1
 0 <= y_4_3_1 <= 1
 0 <= y_4_3_2 <= 1
 0 <= y_4_3_3 <= 1
 0 <= y_4_3_4 <= 1
 0 <= y_3_5_1 <= 1
 0 <= y_3_5_2 <= 1
 0 <= y_3_5_3 <= 1
 0 <= y_3_5_4 <= 1
 0 <= y_h3_h4_1 <= 1
 0 <= y_h3_h4_2 <= 1
 0 <= y_h3_h4_3 <= 1
 0 <= y_h3_h4_4 <= 1
 0 <= y_1_2_1 <= 1
 0 <= y_1_2_2 <= 1
 0 <= y_1_2_3 <= 1
 0 <= y_1_2_4 <= 1
 0 <= y_3_h3_1 <= 1
 0 <= y_3_h3_2 <= 1
 0 <= y_3_h3_3 <= 1
 0 <= y_3_h3_4 <= 1
 0 <= y_1_h2_1 <= 1
 0 <= y_1_h2_2 <= 1
 0 <= y_1_h2_3 <= 1
 0 <= y_1_h2_4 <= 1
 0 <= y_3_h4_1 <= 1
 0 <= y_3_h4_2 <= 1
 0 <= y_3_h4_3 <= 1
 0 <= y_3_h4_4 <= 1
 0 <= y_2_1_1 <= 1
 0 <= y_2_1_2 <= 1
 0 <= y_2_1_3 <= 1
 0 <= y_2_1_4 <= 1
 0 <= y_1_4_1 <= 1
 0 <= y_1_4_2 <= 1
 0 <= y_1_4_3 <= 1
 0 <= y_1_4_4 <= 1
 0 <= y_0_h3_1 <= 1
 0 <= y_0_h3_2 <= 1
 0 <= y_0_h3_3 <= 1
 0 <= y_0_h3_4 <= 1
 0 <= y_h1_5_1 <= 1
 0 <= y_h1_5_2 <= 1
 0 <= y_h1_5_3 <= 1
 0 <= y_h1_5_4 <= 1
 0 <= y_4_2_1 <= 1
 0 <= y_4_2_2 <= 1
 0 <= y_4_2_3 <= 1
 0 <= y_4_2_4 <= 1
 0 <= y_h1_h3_1 <= 1
 0 <= y_h1_h3_2 <= 1
 0 <= y_h1_h3_3 <= 1
 0 <= y_h1_h3_4 <= 1
 0 <= y_h2_1_1 <= 1
 0 <= y_h2_1_2 <= 1
 0 <= y_h2_1_3 <= 1
 0 <= y_h2_1_4 <= 1
 0 <= y_4_h2_1 <= 1
 0 <= y_4_h2_2 <= 1
 0 <= y_4_h2_3 <= 1
 0 <= y_4_h2_4 <= 1
 0 <= y_0_3_1 <= 1
 0 <= y_0_3_2 <= 1
 0 <= y_0_3_3 <= 1
 0 <= y_0_3_4 <= 1
 0 <= y_h1_h4_1 <= 1
 0 <= y_h1_h4_2 <= 1
 0 <= y_h1_h4_3 <= 1
 0 <= y_h1_h4_4 <= 1
 0 <= y_2_h4_1 <= 1
 0 <= y_2_h4_2 <= 1
 0 <= y_2_h4_3 <= 1
 0 <= y_2_h4_4 <= 1
 0 <= y_h3_2_1 <= 1
 0 <= y_h3_2_2 <= 1
 0 <= y_h3_2_3 <= 1
 0 <= y_h3_2_4 <= 1
 0 <= y_2_h1_1 <= 1
 0 <= y_2_h1_2 <= 1
 0 <= y_2_h1_3 <= 1
 0 <= y_2_h1_4 <= 1
 0 <= y_h3_h2_1 <= 1
 0 <= y_h3_h2_2 <= 1
 0 <= y_h3_h2_3 <= 1
 0 <= y_h3_h2_4 <= 1
 0 <= y_h1_3_1 <= 1
 0 <= y_h1_3_2 <= 1
 0 <= y_h1_3_3 <= 1
 0 <= y_h1_3_4 <= 1
 0 <= y_3_2_1 <= 1
 0 <= y_3_2_2 <= 1
 0 <= y_3_2_3 <= 1
 0 <= y_3_2_4 <= 1
 0 <= y_3_h2_1 <= 1
 0 <= y_3_h2_2 <= 1
 0 <= y_3_h2_3 <= 1
 0 <= y_3_h2_4 <= 1
 0 <= y_h3_4_1 <= 1
 0 <= y_h3_4_2 <= 1
 0 <= y_h3_4_3 <= 1
 0 <= y_h3_4_4 <= 1
 0 <= y_h2_h1_1 <= 1
 0 <= y_h2_h1_2 <= 1
 0 <= y_h2_h1_3 <= 1
 0 <= y_h2_h1_4 <= 1
 0 <= y_0_2_1 <= 1
 0 <= y_0_2_2 <= 1
 0 <= y_0_2_3 <= 1
 0 <= y_0_2_4 <= 1
 0 <= y_3_4_1 <= 1
 0 <= y_3_4_2 <= 1
 0 <= y_3_4_3 <= 1
 0 <= y_3_4_4 <= 1
 0 <= y_0_h2_1 <= 1
 0 <= y_0_h2_2 <= 1
 0 <= y_0_h2_3 <= 1
 0 <= y_0_h2_4 <= 1
 0 <= y_h1_2_1 <= 1
 0 <= y_h1_2_2 <= 1
 0 <= y_h1_2_3 <= 1
 0 <= y_h1_2_4 <= 1
 0 <= y_h1_h2_1 <= 1
 0 <= y_h1_h2_2 <= 1
 0 <= y_h1_h2_3 <= 1
 0 <= y_h1_h2_4 <= 1
 0 <= y_h4_h3_1 <= 1
 0 <= y_h4_h3_2 <= 1
 0 <= y_h4_h3_3 <= 1
 0 <= y_h4_h3_4 <= 1
 0 <= y_0_4_1 <= 1
 0 <= y_0_4_2 <= 1
 0 <= y_0_4_3 <= 1
 0 <= y_0_4_4 <= 1
 0 <= y_h1_4_1 <= 1
 0 <= y_h1_4_2 <= 1
 0 <= y_h1_4_3 <= 1
 0 <= y_h1_4_4 <= 1
 0 <= y_h4_3_1 <= 1
 0 <= y_h4_3_2 <= 1
 0 <= y_h4_3_3 <= 1
 0 <= y_h4_3_4 <= 1
 0 <= y_4_5_1 <= 1
 0 <= y_4_5_2 <= 1
 0 <= y_4_5_3 <= 1
 0 <= y_4_5_4 <= 1
 0 <= y_4_1_1 <= 1
 0 <= y_4_1_2 <= 1
 0 <= y_4_1_3 <= 1
 0 <= y_4_1_4 <= 1
 0 <= y_1_h1_1 <= 1
 0 <= y_1_h1_2 <= 1
 0 <= y_1_h1_3 <= 1
 0 <= y_1_h1_4 <= 1
 0 <= y_h3_1_1 <= 1
 0 <= y_h3_1_2 <= 1
 0 <= y_h3_1_3 <= 1
 0 <= y_h3_1_4 <= 1
 0 <= y_h4_2_1 <= 1
 0 <= y_h4_2_2 <= 1
 0 <= y_h4_2_3 <= 1
 0 <= y_h4_2_4 <= 1
 0 <= y_h4_h2_1 <= 1
 0 <= y_h4_h2_2 <= 1
 0 <= y_h4_h2_3 <= 1
 0 <= y_h4_h2_4 <= 1
 0 <= y_3_1_1 <= 1
 0 <= y_3_1_2 <= 1
 0 <= y_3_1_3 <= 1
 0 <= y_3_1_4 <= 1
 0 <= y_0_1_1 <= 1
 0 <= y_0_1_2 <= 1
 0 <= y_0_1_3 <= 1
 0 <= y_0_1_4 <= 1
 0 <= y_h3_h1_1 <= 1
 0 <= y_h3_h1_2 <= 1
 0 <= y_h3_h1_3 <= 1
 0 <= y_h3_h1_4 <= 1
 0 <= y_2_5_1 <= 1
 0 <= y_2_5_2 <= 1
 0 <= y_2_5_3 <= 1
 0 <= y_2_5_4 <= 1
 0 <= y_2_h3_1 <= 1
 0 <= y_2_h3_2 <= 1
 0 <= y_2_h3_3 <= 1
 0 <= y_2_h3_4 <= 1
 0 <= y_3_h1_1 <= 1
 0 <= y_3_h1_2 <= 1
 0 <= y_3_h1_3 <= 1
 0 <= y_3_h1_4 <= 1
 0 <= y_h2_5_1 <= 1
 0 <= y_h2_5_2 <= 1
 0 <= y_h2_5_3 <= 1
 0 <= y_h2_5_4 <= 1
 0 <= y_0_h4_1 <= 1
 0 <= y_0_h4_2 <= 1
 0 <= y_0_h4_3 <= 1
 0 <= y_0_h4_4 <= 1
 0 <= y_2_3_1 <= 1
 0 <= y_2_3_2 <= 1
 0 <= y_2_3_3 <= 1
 0 <= y_2_3_4 <= 1
 0 <= y_h2_h3_1 <= 1
 0 <= y_h2_h3_2 <= 1
 0 <= y_h2_h3_3 <= 1
 0 <= y_h2_h3_4 <= 1
 0 <= y_0_h1_1 <= 1
 0 <= y_0_h1_2 <= 1
 0 <= y_0_h1_3 <= 1
 0 <= y_0_h1_4 <= 1
 0 <= y_h2_h4_1 <= 1
 0 <= y_h2_h4_2 <= 1
 0 <= y_h2_h4_3 <= 1
 0 <= y_h2_h4_4 <= 1
 0 <= z_1_1 <= 1
 0 <= z_1_2 <= 1
 0 <= z_1_3 <= 1
 0 <= z_1_4 <= 1
 0 <= z_2_1 <= 1
 0 <= z_2_2 <= 1
 0 <= z_2_3 <= 1
 0 <= z_2_4 <= 1
 0 <= z_3_1 <= 1
 0 <= z_3_2 <= 1
 0 <= z_3_3 <= 1
 0 <= z_3_4 <= 1
 0 <= z_4_1 <= 1
 0 <= z_4_2 <= 1
 0 <= z_4_3 <= 1
 0 <= z_4_4 <= 1
 0 <= o_1 <= 1
 0 <= o_2 <= 1
 0 <= o_3 <= 1
 0 <= o_4 <= 1
Binaries
 x_h2_3  x_h4_5  x_2_h2  x_h4_1  x_2_4  x_1_5  x_1_h3  x_h4_h1  x_h2_4  x_1_h4 
 x_1_3  x_4_h3  x_h3_5  x_4_h4  x_4_h1  x_4_3  x_3_5  x_h3_h4  x_1_2  x_3_h3 
 x_1_h2  x_3_h4  x_2_1  x_1_4  x_0_h3  x_h1_5  x_4_2  x_h1_h3  x_h2_1  x_4_h2 
 x_0_3  x_h1_h4  x_2_h4  x_h3_2  x_2_h1  x_h3_h2  x_h1_3  x_3_2  x_3_h2 
 x_h3_4  x_h2_h1  x_0_2  x_3_4  x_0_h2  x_h1_2  x_h1_h2  x_h4_h3  x_0_4 
 x_h1_4  x_h4_3  x_4_5  x_4_1  x_1_h1  x_h3_1  x_h4_2  x_h4_h2  x_3_1  x_0_1 
 x_h3_h1  x_2_5  x_2_h3  x_3_h1  x_h2_5  x_0_h4  x_2_3  x_h2_h3  x_0_h1 
 x_h2_h4  y_h2_3_1  y_h2_3_2  y_h2_3_3  y_h2_3_4  y_h4_5_1  y_h4_5_2  y_h4_5_3 
 y_h4_5_4  y_2_h2_1  y_2_h2_2  y_2_h2_3  y_2_h2_4  y_h4_1_1  y_h4_1_2 
 y_h4_1_3  y_h4_1_4  y_2_4_1  y_2_4_2  y_2_4_3  y_2_4_4  y_1_5_1  y_1_5_2 
 y_1_5_3  y_1_5_4  y_1_h3_1  y_1_h3_2  y_1_h3_3  y_1_h3_4  y_h4_h1_1 
 y_h4_h1_2  y_h4_h1_3  y_h4_h1_4  y_h2_4_1  y_h2_4_2  y_h2_4_3  y_h2_4_4 
 y_1_h4_1  y_1_h4_2  y_1_h4_3  y_1_h4_4  y_1_3_1  y_1_3_2  y_1_3_3  y_1_3_4 
 y_4_h3_1  y_4_h3_2  y_4_h3_3  y_4_h3_4  y_h3_5_1  y_h3_5_2  y_h3_5_3 
 y_h3_5_4  y_4_h4_1  y_4_h4_2  y_4_h4_3  y_4_h4_4  y_4_h1_1  y_4_h1_2 
 y_4_h1_3  y_4_h1_4  y_4_3_1  y_4_3_2  y_4_3_3  y_4_3_4  y_3_5_1  y_3_5_2 
 y_3_5_3  y_3_5_4  y_h3_h4_1  y_h3_h4_2  y_h3_h4_3  y_h3_h4_4  y_1_2_1 
 y_1_2_2  y_1_2_3  y_1_2_4  y_3_h3_1  y_3_h3_2  y_3_h3_3  y_3_h3_4  y_1_h2_1 
 y_1_h2_2  y_1_h2_3  y_1_h2_4  y_3_h4_1  y_3_h4_2  y_3_h4_3  y_3_h4_4  y_2_1_1 
 y_2_1_2  y_2_1_3  y_2_1_4  y_1_4_1  y_1_4_2  y_1_4_3  y_1_4_4  y_0_h3_1 
 y_0_h3_2  y_0_h3_3  y_0_h3_4  y_h1_5_1  y_h1_5_2  y_h1_5_3  y_h1_5_4  y_4_2_1 
 y_4_2_2  y_4_2_3  y_4_2_4  y_h1_h3_1  y_h1_h3_2  y_h1_h3_3  y_h1_h3_4 
 y_h2_1_1  y_h2_1_2  y_h2_1_3  y_h2_1_4  y_4_h2_1  y_4_h2_2  y_4_h2_3 
 y_4_h2_4  y_0_3_1  y_0_3_2  y_0_3_3  y_0_3_4  y_h1_h4_1  y_h1_h4_2  y_h1_h4_3 
 y_h1_h4_4  y_2_h4_1  y_2_h4_2  y_2_h4_3  y_2_h4_4  y_h3_2_1  y_h3_2_2 
 y_h3_2_3  y_h3_2_4  y_2_h1_1  y_2_h1_2  y_2_h1_3  y_2_h1_4  y_h3_h2_1 
 y_h3_h2_2  y_h3_h2_3  y_h3_h2_4  y_h1_3_1  y_h1_3_2  y_h1_3_3  y_h1_3_4 
 y_3_2_1  y_3_2_2  y_3_2_3  y_3_2_4  y_3_h2_1  y_3_h2_2  y_3_h2_3  y_3_h2_4 
 y_h3_4_1  y_h3_4_2  y_h3_4_3  y_h3_4_4  y_h2_h1_1  y_h2_h1_2  y_h2_h1_3 
 y_h2_h1_4  y_0_2_1  y_0_2_2  y_0_2_3  y_0_2_4  y_3_4_1  y_3_4_2  y_3_4_3 
 y_3_4_4  y_0_h2_1  y_0_h2_2  y_0_h2_3  y_0_h2_4  y_h1_2_1  y_h1_2_2  y_h1_2_3 
 y_h1_2_4  y_h1_h2_1  y_h1_h2_2  y_h1_h2_3  y_h1_h2_4  y_h4_h3_1  y_h4_h3_2 
 y_h4_h3_3  y_h4_h3_4  y_0_4_1  y_0_4_2  y_0_4_3  y_0_4_4  y_h1_4_1  y_h1_4_2 
 y_h1_4_3  y_h1_4_4  y_h4_3_1  y_h4_3_2  y_h4_3_3  y_h4_3_4  y_4_5_1  y_4_5_2 
 y_4_5_3  y_4_5_4  y_4_1_1  y_4_1_2  y_4_1_3  y_4_1_4  y_1_h1_1  y_1_h1_2 
 y_1_h1_3  y_1_h1_4  y_h3_1_1  y_h3_1_2  y_h3_1_3  y_h3_1_4  y_h4_2_1 
 y_h4_2_2  y_h4_2_3  y_h4_2_4  y_h4_h2_1  y_h4_h2_2  y_h4_h2_3  y_h4_h2_4 
 y_3_1_1  y_3_1_2  y_3_1_3  y_3_1_4  y_0_1_1  y_0_1_2  y_0_1_3  y_0_1_4 
 y_h3_h1_1  y_h3_h1_2  y_h3_h1_3  y_h3_h1_4  y_2_5_1  y_2_5_2  y_2_5_3 
 y_2_5_4  y_2_h3_1  y_2_h3_2  y_2_h3_3  y_2_h3_4  y_3_h1_1  y_3_h1_2  y_3_h1_3 
 y_3_h1_4  y_h2_5_1  y_h2_5_2  y_h2_5_3  y_h2_5_4  y_0_h4_1  y_0_h4_2 
 y_0_h4_3  y_0_h4_4  y_2_3_1  y_2_3_2  y_2_3_3  y_2_3_4  y_h2_h3_1  y_h2_h3_2 
 y_h2_h3_3  y_h2_h3_4  y_0_h1_1  y_0_h1_2  y_0_h1_3  y_0_h1_4  y_h2_h4_1 
 y_h2_h4_2  y_h2_h4_3  y_h2_h4_4  z_1_1  z_1_2  z_1_3  z_1_4  z_2_1  z_2_2 
 z_2_3  z_2_4  z_3_1  z_3_2  z_3_3  z_3_4  z_4_1  z_4_2  z_4_3  z_4_4  o_1 
 o_2  o_3  o_4 
End
